(set-logic ALL)
(declare-const old_path_VAR String)
(declare-const new_path_VAR String)
(assert (not (< (str.len old_path_VAR) 0)))
(assert (str.contains old_path_VAR "/"))
(assert (not (< (str.len old_path_VAR) 0)))
(assert (not (= (+ 0 (str.indexof old_path_VAR "/" 0)) (- 1))))
(assert (not (< (+ 0 (str.indexof old_path_VAR "/" 0)) 0)))
(assert (not (< (+ (+ 0 (str.indexof old_path_VAR "/" 0)) 1) 0)))
(assert (not (< (str.len old_path_VAR) 0)))
(assert (not (< (str.len (str.substr old_path_VAR (+ (+ 0 (str.indexof old_path_VAR "/" 0)) 1) (- (str.len old_path_VAR) (+ (+ 0 (str.indexof old_path_VAR "/" 0)) 1)))) 0)))
(assert (not (str.contains (str.substr old_path_VAR (+ (+ 0 (str.indexof old_path_VAR "/" 0)) 1) (- (str.len old_path_VAR) (+ (+ 0 (str.indexof old_path_VAR "/" 0)) 1))) "/")))
(assert (not (< (str.len (str.substr old_path_VAR (+ (+ 0 (str.indexof old_path_VAR "/" 0)) 1) (- (str.len old_path_VAR) (+ (+ 0 (str.indexof old_path_VAR "/" 0)) 1)))) 0)))
(assert (not (= (+ 0 (str.indexof (str.substr old_path_VAR (+ (+ 0 (str.indexof old_path_VAR "/" 0)) 1) (- (str.len old_path_VAR) (+ (+ 0 (str.indexof old_path_VAR "/" 0)) 1))) "/" 0)) (- 1))))
(check-sat)
(get-value (old_path_VAR))
(get-value (new_path_VAR))
